c 89_3_checker_5cl.cnf
c
c field = 89
c formula set type = 3_checker_5cl
c
p cnf 5 12
170 
172 
174 
-179 
-168 
171 
173 
175 
-178 
-169 
172 
174 
178 
-171 
-168 
173 
175 
179 
-170 
-169 
80 
112 
144 
-209 
-48 
81 
113 
145 
-208 
-49 
112 
144 
208 
-81 
-48 
113 
145 
209 
-80 
-49 
148 
204 
232 
-261 
-288 
149 
205 
233 
-260 
-289 
204 
232 
260 
-149 
-288 
205 
233 
261 
-148 
-289 
